Maximize
 0
Subject To
 epc_0!1: -22.306873697647788 y_1!1_2!1 -96.6153846916397 y_1!2_2!1 +66.49252860371084 y_1!3_2!1 +6.9039104385932575 y_1!1_2!2 +96.66591027806808 y_1!2_2!2 -30.193125353798564 y_1!3_2!2 -57.98973958526305 y_1!1_2!3 +79.85060873895986 y_1!2_2!3 -46.23881968628045 y_1!3_2!3 + lambda_0!1 - mu_0 = 0
 epc_0!2: -47.52041228064754 y_1!1_2!1 +70.42196692562567 y_1!2_2!1 +73.64145375084172 y_1!3_2!1 +91.89407723356865 y_1!1_2!2 +37.00706272806548 y_1!2_2!2 +32.840956576293394 y_1!3_2!2 -5.722408944590171 y_1!1_2!3 -19.254465326841114 y_1!2_2!3 -91.2704297841415 y_1!3_2!3 + lambda_0!2 - mu_0 = 0
 epc_0!3: +91.04320093886608 y_1!1_2!1 -31.567178951720678 y_1!2_2!1 +91.34436859133669 y_1!3_2!1 +59.69889316956193 y_1!1_2!2 -75.4451900970977 y_1!2_2!2 +64.16809514166394 y_1!3_2!2 +94.53413080186886 y_1!1_2!3 +1.8090192183248348 y_1!2_2!3 -77.13732488704963 y_1!3_2!3 + lambda_0!3 - mu_0 = 0
 dc_0: x_0!1 + x_0!2 + x_0!3 = 1
 bc_0!1: lambda_0!1 +297.9261127575229 x_0!1 <= 297.9261127575229
 bc_0!2: lambda_0!2 +297.9261127575229 x_0!2 <= 297.9261127575229
 bc_0!3: lambda_0!3 +297.9261127575229 x_0!3 <= 297.9261127575229
 sum_0!1: y_1!1_2!1 - x_1!1 - x_2!1 >= -1
 idk_0!1!1: y_1!1_2!1 - x_1!1 <= 0
 idk_0!1!2: y_1!1_2!1 - x_2!1 <= 0
 sum_0!2: y_1!2_2!1 - x_1!2 - x_2!1 >= -1
 idk_0!2!1: y_1!2_2!1 - x_1!2 <= 0
 idk_0!2!2: y_1!2_2!1 - x_2!1 <= 0
 sum_0!3: y_1!3_2!1 - x_1!3 - x_2!1 >= -1
 idk_0!3!1: y_1!3_2!1 - x_1!3 <= 0
 idk_0!3!2: y_1!3_2!1 - x_2!1 <= 0
 sum_0!4: y_1!1_2!2 - x_1!1 - x_2!2 >= -1
 idk_0!4!1: y_1!1_2!2 - x_1!1 <= 0
 idk_0!4!2: y_1!1_2!2 - x_2!2 <= 0
 sum_0!5: y_1!2_2!2 - x_1!2 - x_2!2 >= -1
 idk_0!5!1: y_1!2_2!2 - x_1!2 <= 0
 idk_0!5!2: y_1!2_2!2 - x_2!2 <= 0
 sum_0!6: y_1!3_2!2 - x_1!3 - x_2!2 >= -1
 idk_0!6!1: y_1!3_2!2 - x_1!3 <= 0
 idk_0!6!2: y_1!3_2!2 - x_2!2 <= 0
 sum_0!7: y_1!1_2!3 - x_1!1 - x_2!3 >= -1
 idk_0!7!1: y_1!1_2!3 - x_1!1 <= 0
 idk_0!7!2: y_1!1_2!3 - x_2!3 <= 0
 sum_0!8: y_1!2_2!3 - x_1!2 - x_2!3 >= -1
 idk_0!8!1: y_1!2_2!3 - x_1!2 <= 0
 idk_0!8!2: y_1!2_2!3 - x_2!3 <= 0
 sum_0!9: y_1!3_2!3 - x_1!3 - x_2!3 >= -1
 idk_0!9!1: y_1!3_2!3 - x_1!3 <= 0
 idk_0!9!2: y_1!3_2!3 - x_2!3 <= 0
 epc_1!1: -69.56552803852571 y_0!1_2!1 +35.23051988190966 y_0!2_2!1 +53.53818405938085 y_0!3_2!1 +72.58080545506289 y_0!1_2!2 -39.52142788499493 y_0!2_2!2 -90.6605875960313 y_0!3_2!2 +99.31299102430035 y_0!1_2!3 -1.593187342547722 y_0!2_2!3 +58.585597105380174 y_0!3_2!3 + lambda_1!1 - mu_1 = 0
 epc_1!2: +12.896786182800241 y_0!1_2!1 +89.31164925950748 y_0!2_2!1 -60.15890079795465 y_0!3_2!1 -63.56078756170955 y_0!1_2!2 +65.88377435654036 y_0!2_2!2 -30.510231213137118 y_0!3_2!2 +92.2851534293558 y_0!1_2!3 -22.706271389325707 y_0!2_2!3 -25.175374824231994 y_0!3_2!3 + lambda_1!2 - mu_1 = 0
 epc_1!3: +37.336272256256365 y_0!1_2!1 -34.383126956162016 y_0!2_2!1 +86.68911979302405 y_0!3_2!1 -8.980804972290528 y_0!1_2!2 +38.47225266014601 y_0!2_2!2 +11.309197209586046 y_0!3_2!2 -98.61312173322258 y_0!1_2!3 -85.83895573950252 y_0!2_2!3 +4.207137973831678 y_0!3_2!3 + lambda_1!3 - mu_1 = 0
 dc_1: x_1!1 + x_1!2 + x_1!3 = 1
 bc_1!1: lambda_1!1 +297.9261127575229 x_1!1 <= 297.9261127575229
 bc_1!2: lambda_1!2 +297.9261127575229 x_1!2 <= 297.9261127575229
 bc_1!3: lambda_1!3 +297.9261127575229 x_1!3 <= 297.9261127575229
 sum_1!1: y_0!1_2!1 - x_0!1 - x_2!1 >= -1
 idk_1!1!0: y_0!1_2!1 - x_0!1 <= 0
 idk_1!1!2: y_0!1_2!1 - x_2!1 <= 0
 sum_1!2: y_0!2_2!1 - x_0!2 - x_2!1 >= -1
 idk_1!2!0: y_0!2_2!1 - x_0!2 <= 0
 idk_1!2!2: y_0!2_2!1 - x_2!1 <= 0
 sum_1!3: y_0!3_2!1 - x_0!3 - x_2!1 >= -1
 idk_1!3!0: y_0!3_2!1 - x_0!3 <= 0
 idk_1!3!2: y_0!3_2!1 - x_2!1 <= 0
 sum_1!4: y_0!1_2!2 - x_0!1 - x_2!2 >= -1
 idk_1!4!0: y_0!1_2!2 - x_0!1 <= 0
 idk_1!4!2: y_0!1_2!2 - x_2!2 <= 0
 sum_1!5: y_0!2_2!2 - x_0!2 - x_2!2 >= -1
 idk_1!5!0: y_0!2_2!2 - x_0!2 <= 0
 idk_1!5!2: y_0!2_2!2 - x_2!2 <= 0
 sum_1!6: y_0!3_2!2 - x_0!3 - x_2!2 >= -1
 idk_1!6!0: y_0!3_2!2 - x_0!3 <= 0
 idk_1!6!2: y_0!3_2!2 - x_2!2 <= 0
 sum_1!7: y_0!1_2!3 - x_0!1 - x_2!3 >= -1
 idk_1!7!0: y_0!1_2!3 - x_0!1 <= 0
 idk_1!7!2: y_0!1_2!3 - x_2!3 <= 0
 sum_1!8: y_0!2_2!3 - x_0!2 - x_2!3 >= -1
 idk_1!8!0: y_0!2_2!3 - x_0!2 <= 0
 idk_1!8!2: y_0!2_2!3 - x_2!3 <= 0
 sum_1!9: y_0!3_2!3 - x_0!3 - x_2!3 >= -1
 idk_1!9!0: y_0!3_2!3 - x_0!3 <= 0
 idk_1!9!2: y_0!3_2!3 - x_2!3 <= 0
 epc_2!1: +83.71451787416538 y_0!1_1!1 +70.74880869805963 y_0!2_1!1 -52.14302488215201 y_0!3_1!1 -92.4476267974121 y_0!1_1!2 +77.74875176650121 y_0!2_1!2 +75.06298252553862 y_0!3_1!2 +48.73342206430368 y_0!1_1!3 +12.499850161473631 y_0!2_1!3 -13.702138666680483 y_0!3_1!3 + lambda_2!1 - mu_2 = 0
 epc_2!2: -79.6816050707665 y_0!1_1!1 -24.13267251447928 y_0!2_1!1 -60.61073520792628 y_0!3_1!1 +39.18564429173384 y_0!1_1!2 -52.00160861256657 y_0!2_1!2 +11.027077374455232 y_0!3_1!2 +93.4701916653053 y_0!1_1!3 -72.5654063141544 y_0!2_1!3 -21.60964015927567 y_0!3_1!3 + lambda_2!2 - mu_2 = 0
 epc_2!3: +97.26961537248727 y_0!1_1!1 +17.58488241265455 y_0!2_1!1 +13.411197212644893 y_0!3_1!1 +85.45487158432985 y_0!1_1!2 -31.347059974334286 y_0!2_1!2 +82.60607357401821 y_0!3_1!2 -16.21546737516823 y_0!1_1!3 +98.95482899302317 y_0!2_1!3 +0.45663502751698104 y_0!3_1!3 + lambda_2!3 - mu_2 = 0
 dc_2: x_2!1 + x_2!2 + x_2!3 = 1
 bc_2!1: lambda_2!1 +297.9261127575229 x_2!1 <= 297.9261127575229
 bc_2!2: lambda_2!2 +297.9261127575229 x_2!2 <= 297.9261127575229
 bc_2!3: lambda_2!3 +297.9261127575229 x_2!3 <= 297.9261127575229
 sum_2!1: y_0!1_1!1 - x_0!1 - x_1!1 >= -1
 idk_2!1!0: y_0!1_1!1 - x_0!1 <= 0
 idk_2!1!1: y_0!1_1!1 - x_1!1 <= 0
 sum_2!2: y_0!2_1!1 - x_0!2 - x_1!1 >= -1
 idk_2!2!0: y_0!2_1!1 - x_0!2 <= 0
 idk_2!2!1: y_0!2_1!1 - x_1!1 <= 0
 sum_2!3: y_0!3_1!1 - x_0!3 - x_1!1 >= -1
 idk_2!3!0: y_0!3_1!1 - x_0!3 <= 0
 idk_2!3!1: y_0!3_1!1 - x_1!1 <= 0
 sum_2!4: y_0!1_1!2 - x_0!1 - x_1!2 >= -1
 idk_2!4!0: y_0!1_1!2 - x_0!1 <= 0
 idk_2!4!1: y_0!1_1!2 - x_1!2 <= 0
 sum_2!5: y_0!2_1!2 - x_0!2 - x_1!2 >= -1
 idk_2!5!0: y_0!2_1!2 - x_0!2 <= 0
 idk_2!5!1: y_0!2_1!2 - x_1!2 <= 0
 sum_2!6: y_0!3_1!2 - x_0!3 - x_1!2 >= -1
 idk_2!6!0: y_0!3_1!2 - x_0!3 <= 0
 idk_2!6!1: y_0!3_1!2 - x_1!2 <= 0
 sum_2!7: y_0!1_1!3 - x_0!1 - x_1!3 >= -1
 idk_2!7!0: y_0!1_1!3 - x_0!1 <= 0
 idk_2!7!1: y_0!1_1!3 - x_1!3 <= 0
 sum_2!8: y_0!2_1!3 - x_0!2 - x_1!3 >= -1
 idk_2!8!0: y_0!2_1!3 - x_0!2 <= 0
 idk_2!8!1: y_0!2_1!3 - x_1!3 <= 0
 sum_2!9: y_0!3_1!3 - x_0!3 - x_1!3 >= -1
 idk_2!9!0: y_0!3_1!3 - x_0!3 <= 0
 idk_2!9!1: y_0!3_1!3 - x_1!3 <= 0
Bounds
 mu_0 free
 mu_1 free
 mu_2 free
Binary
 x_0!1 x_0!2 x_0!3 x_1!1 x_1!2 x_1!3 x_2!1 x_2!2 x_2!3
End
